Automatic kpoint scheme
0
Monkhorst
11 11 11
