Si2
1.0
-2.524876 2.524876 1.440795
2.524876 -2.524876 1.440795
2.524876 2.524876 -1.440795
Si
2
direct
0.000000 0.000000 0.000000 Si
0.250000 0.750000 0.500000 Si
