Si2
1.0
-2.431523 2.431523 1.339206
2.431523 -2.431523 1.339206
2.431523 2.431523 -1.339206
Si
2
direct
0.750000 0.250000 0.500000 Si
0.500000 0.500000 0.000000 Si
