Si2
1.0
-2.428155 2.428155 1.337352
2.428155 -2.428155 1.337352
2.428155 2.428155 -1.337352
Si
2
direct
0.750000 0.250000 0.500000 Si
0.500000 0.500000 0.000000 Si
