Automatic kpoint scheme
0
Monkhorst
7 7 7
