Si2                                     
   1.00000000000000     
    -2.4873482585879318    2.4873482585879318    1.2451730841601341
     2.4873482585879318   -2.4873482585879318    1.2451730841601341
     2.4873482585879318    2.4873482585879318   -1.2451730841601341
   Si
     2
Direct
  0.2500000000000000  0.7500000000000000  0.5000000000000000
 -0.0000000000000000  0.0000000000000000 -0.0000000000000000
 
  0.00000000E+00  0.00000000E+00  0.00000000E+00
  0.00000000E+00  0.00000000E+00  0.00000000E+00
