Si2                                     
   1.00000000000000     
    -2.4228655316796655    2.4228655316796655    1.3067395570152984
     2.4228655316796655   -2.4228655316796655    1.3067395570152984
     2.4228655316796655    2.4228655316796655   -1.3067395570152984
   Si
     2
Direct
  0.2500000000000000  0.7500000000000000  0.5000000000000000
 -0.0000000000000000  0.0000000000000000  0.0000000000000000
 
  0.00000000E+00  0.00000000E+00  0.00000000E+00
  0.00000000E+00  0.00000000E+00  0.00000000E+00
