Si2
1.0
-2.429598 2.429598 1.338146
2.429598 -2.429598 1.338146
2.429598 2.429598 -1.338146
Si
2
direct
0.750000 0.250000 0.500000 Si
0.500000 0.500000 0.000000 Si
