Si2                                     
   1.00000000000000     
    -2.4101141804882897    2.4101141804882897    1.3202897014132000
     2.4101141804882897   -2.4101141804882897    1.3202897014132000
     2.4101141804882897    2.4101141804882897   -1.3202897014132000
   Si
     2
Direct
  0.2500000000000000  0.7500000000000000  0.5000000000000000
 -0.0000000000000000  0.0000000000000000 -0.0000000000000000
 
  0.00000000E+00  0.00000000E+00  0.00000000E+00
  0.00000000E+00  0.00000000E+00  0.00000000E+00
