Si2                                     
   1.00000000000000     
    -2.3858310145492401    2.3858310145492401    1.3493472888397333
     2.3858310145492401   -2.3858310145492401    1.3493472888397331
     2.3858310145492401    2.3858310145492401   -1.3493472888397331
   Si
     2
Direct
  0.2500000000000000  0.7500000000000000  0.5000000000000000
 -0.0000000000000000  0.0000000000000000 -0.0000000000000000
 
  0.00000000E+00  0.00000000E+00  0.00000000E+00
  0.00000000E+00  0.00000000E+00  0.00000000E+00
