Automatic kpoint scheme
0
Monkhorst
12 12 12
