Si2
1.0
-2.427193 2.427193 1.336822
2.427193 -2.427193 1.336822
2.427193 2.427193 -1.336822
Si
2
direct
0.750000 0.250000 0.500000 Si
0.500000 0.500000 0.000000 Si
