Automatic kpoint scheme
0
Monkhorst
9 9 9
