Si2                                     
   1.00000000000000     
    -2.3861378177401154    2.3861378177401154    1.3507211647024580
     2.3861378177401154   -2.3861378177401154    1.3507211647024577
     2.3861378177401154    2.3861378177401154   -1.3507211647024577
   Si
     2
Direct
  0.2500000000000000  0.7500000000000000  0.5000000000000000
  0.0000000000000000  0.0000000000000000  0.0000000000000000
 
  0.00000000E+00  0.00000000E+00  0.00000000E+00
  0.00000000E+00  0.00000000E+00  0.00000000E+00
