Si2                                     
   1.00000000000000     
    -2.4276740000000001    2.4276740000000001    1.3370869999999999
     2.4276740000000001   -2.4276740000000001    1.3370869999999999
     2.4276740000000001    2.4276740000000001   -1.3370869999999999
   Si
     2
Direct
  0.7500000000000000  0.2500000000000000  0.5000000000000000
  0.5000000000000000  0.5000000000000000  0.0000000000000000
 
  0.00000000E+00  0.00000000E+00  0.00000000E+00
  0.00000000E+00  0.00000000E+00  0.00000000E+00
