Si2
1.0
-2.191402 2.191402 1.250502
2.191402 -2.191402 1.250502
2.191402 2.191402 -1.250502
Si
2
direct
0.000000 0.000000 0.000000 Si
0.250000 0.750000 0.500000 Si
