Si2                                     
   1.00000000000000     
    -2.4453238977576111    2.4453238977576111    1.2753116732787446
     2.4453238977576111   -2.4453238977576111    1.2753116732787446
     2.4453238977576111    2.4453238977576111   -1.2753116732787446
   Si
     2
Direct
  0.2500000000000000  0.7500000000000000  0.5000000000000000
 -0.0000000000000000  0.0000000000000000 -0.0000000000000000
 
  0.00000000E+00  0.00000000E+00  0.00000000E+00
  0.00000000E+00  0.00000000E+00  0.00000000E+00
