EDIFF = 0.0004
EDIFFG = -0.01
ENCUT = 520
IBRION = 2
ISIF = 1
ISMEAR = -5
SIGMA = 0.05
LREAL = Auto
NSW = 99