Si2
1.0
-2.358139 2.358139 1.345648
2.358139 -2.358139 1.345648
2.358139 2.358139 -1.345648
Si
2
direct
0.000000 0.000000 0.000000 Si
0.250000 0.750000 0.500000 Si
