Si2                                     
   1.00000000000000     
    -2.4137091818255922    2.4137091818255922    1.3135206984556020
     2.4137091818255922   -2.4137091818255922    1.3135206984556018
     2.4137091818255922    2.4137091818255922   -1.3135206984556018
   Si
     2
Direct
  0.2500000000000000  0.7500000000000000  0.5000000000000000
 -0.0000000000000000 -0.0000000000000000 -0.0000000000000000
 
  0.00000000E+00  0.00000000E+00  0.00000000E+00
  0.00000000E+00  0.00000000E+00  0.00000000E+00
