Si2
1.0
-2.429839 2.429839 1.338279
2.429839 -2.429839 1.338279
2.429839 2.429839 -1.338279
Si
2
direct
0.750000 0.250000 0.500000 Si
0.500000 0.500000 0.000000 Si
