Si2                                     
   1.00000000000000     
    -2.3075768184956793    2.3075768184956793    1.4757793496626932
     2.3075768184956793   -2.3075768184956793    1.4757793496626932
     2.3075768184956793    2.3075768184956793   -1.4757793496626932
   Si
     2
Direct
  0.2500000000000000  0.7500000000000000  0.5000000000000000
 -0.0000000000000000  0.0000000000000000 -0.0000000000000000
 
  0.00000000E+00  0.00000000E+00  0.00000000E+00
  0.00000000E+00  0.00000000E+00  0.00000000E+00
