Si2
1.0
-0.000000 2.570241 2.570241
2.570241 0.000000 2.570241
2.570241 2.570241 0.000000
Si
2
direct
0.000000 0.000000 0.000000 Si
0.250000 0.250000 0.250000 Si
