Si2                                     
   1.00000000000000     
    -2.3785498347813596    2.3785498347813596    1.3438544878812657
     2.3785498347813596   -2.3785498347813596    1.3438544878812659
     2.3785498347813596    2.3785498347813596   -1.3438544878812657
   Si
     2
Direct
  0.2500000000000000  0.7500000000000000  0.5000000000000000
  0.0000000000000000 -0.0000000000000000  0.0000000000000000
 
  0.00000000E+00  0.00000000E+00  0.00000000E+00
  0.00000000E+00  0.00000000E+00  0.00000000E+00
