Si2
1.0
-2.167582 2.167582 1.236909
2.167582 -2.167582 1.236909
2.167582 2.167582 -1.236909
Si
2
direct
0.000000 0.000000 0.000000 Si
0.250000 0.750000 0.500000 Si
