Si2
1.0
-2.428396 2.428396 1.337484
2.428396 -2.428396 1.337484
2.428396 2.428396 -1.337484
Si
2
direct
0.750000 0.250000 0.500000 Si
0.500000 0.500000 0.000000 Si
