Si2
1.0
-2.429598 2.429598 1.386426
2.429598 -2.429598 1.386426
2.429598 2.429598 -1.386426
Si
2
direct
0.000000 0.000000 0.000000 Si
0.250000 0.750000 0.500000 Si
