Si2
1.0
-2.239041 2.239041 1.277686
2.239041 -2.239041 1.277686
2.239041 2.239041 -1.277686
Si
2
direct
0.000000 0.000000 0.000000 Si
0.250000 0.750000 0.500000 Si
