Si2                                     
   1.00000000000000     
     0.0000000000000000    2.7336409620752526    2.7336409620752526
     2.7336409620752526    0.0000000000000000    2.7336409620752526
     2.7336409620752526    2.7336409620752526   -0.0000000000000000
   Si
     2
Direct
  0.5000000000000000  0.5000000000000000  0.5000000000000000
  0.7500000000000000  0.7500000000000000  0.7500000000000000
 
  0.00000000E+00  0.00000000E+00  0.00000000E+00
  0.00000000E+00  0.00000000E+00  0.00000000E+00
