Si2
1.0
-2.430561 2.430561 1.338676
2.430561 -2.430561 1.338676
2.430561 2.430561 -1.338676
Si
2
direct
0.750000 0.250000 0.500000 Si
0.500000 0.500000 0.000000 Si
