Si2
1.0
-2.262861 2.262861 1.291279
2.262861 -2.262861 1.291279
2.262861 2.262861 -1.291279
Si
2
direct
0.000000 0.000000 0.000000 Si
0.250000 0.750000 0.500000 Si
