Si2
1.0
-2.620155 2.620155 1.495165
2.620155 -2.620155 1.495165
2.620155 2.620155 -1.495165
Si
2
direct
0.000000 0.000000 0.000000 Si
0.250000 0.750000 0.500000 Si
