Si2
1.0
-2.143763 2.143763 1.223317
2.143763 -2.143763 1.223317
2.143763 2.143763 -1.223317
Si
2
direct
0.000000 0.000000 0.000000 Si
0.250000 0.750000 0.500000 Si
