Si2                                     
   1.00000000000000     
    -2.3948765558066571    2.3948765558066571    1.3389331443086823
     2.3948765558066571   -2.3948765558066571    1.3389331443086823
     2.3948765558066571    2.3948765558066571   -1.3389331443086823
   Si
     2
Direct
  0.2500000000000000  0.7500000000000000  0.5000000000000000
  0.0000000000000000  0.0000000000000000  0.0000000000000000
 
  0.00000000E+00  0.00000000E+00  0.00000000E+00
  0.00000000E+00  0.00000000E+00  0.00000000E+00
