EDIFF = 0.0004
EDIFFG = -0.01
ENCUT = 350
IBRION = 2
ISIF = 2
ISMEAR = 0
LREAL = False
NBANDS = 8
NSW = 15
SIGMA = 0.2
