Si2                                     
   1.00000000000000     
    -2.5486960000000001    2.5486960000000001    1.4543880000000000
     2.5486960000000001   -2.5486960000000001    1.4543880000000000
     2.5486960000000001    2.5486960000000001   -1.4543880000000000
   Si
     2
Direct
  0.0000000000000000  0.0000000000000000  0.0000000000000000
  0.2500000000000000  0.7500000000000000  0.5000000000000000
 
  0.00000000E+00  0.00000000E+00  0.00000000E+00
  0.00000000E+00  0.00000000E+00  0.00000000E+00
