Si2
1.0
-2.548696 2.548696 1.454388
2.548696 -2.548696 1.454388
2.548696 2.548696 -1.454388
Si
2
direct
0.000000 0.000000 0.000000 Si
0.250000 0.750000 0.500000 Si
