Si2
1.0
-2.453418 2.453418 1.400018
2.453418 -2.453418 1.400018
2.453418 2.453418 -1.400018
Si
2
direct
0.000000 0.000000 0.000000 Si
0.250000 0.750000 0.500000 Si
