Si2
1.0
-2.427915 2.427915 1.337219
2.427915 -2.427915 1.337219
2.427915 2.427915 -1.337219
Si
2
direct
0.750000 0.250000 0.500000 Si
0.500000 0.500000 0.000000 Si
