Si2                                     
   1.00000000000000     
    -2.3835046567475264    2.3835046567475264    1.3466773141970383
     2.3835046567475264   -2.3835046567475264    1.3466773141970383
     2.3835046567475264    2.3835046567475264   -1.3466773141970383
   Si
     2
Direct
  0.2500000000000000  0.7500000000000000  0.5000000000000000
 -0.0000000000000000 -0.0000000000000000  0.0000000000000000
 
  0.00000000E+00  0.00000000E+00  0.00000000E+00
  0.00000000E+00  0.00000000E+00  0.00000000E+00
