Si2
1.0
-2.430320 2.430320 1.338544
2.430320 -2.430320 1.338544
2.430320 2.430320 -1.338544
Si
2
direct
0.750000 0.250000 0.500000 Si
0.500000 0.500000 0.000000 Si
