Si2                                     
   1.00000000000000     
    -2.3789614386373654    2.3789614386373654    1.3446381954087969
     2.3789614386373654   -2.3789614386373654    1.3446381954087969
     2.3789614386373654    2.3789614386373654   -1.3446381954087969
   Si
     2
Direct
  0.2500000000000000  0.7500000000000000  0.5000000000000000
 -0.0000000000000000  0.0000000000000000  0.0000000000000000
 
  0.00000000E+00  0.00000000E+00  0.00000000E+00
  0.00000000E+00  0.00000000E+00  0.00000000E+00
