Si2
1.0
-0.000000 2.760067 2.760067
2.760067 0.000000 2.760067
2.760067 2.760067 0.000000
Si
2
direct
0.500000 0.500000 0.500000 Si
0.750000 0.750000 0.750000 Si
