Si2                                     
   1.00000000000000     
    -2.3982991601831145    2.3982991601831145    1.3420175771057783
     2.3982991601831145   -2.3982991601831145    1.3420175771057783
     2.3982991601831145    2.3982991601831145   -1.3420175771057783
   Si
     2
Direct
  0.2500000000000000  0.7500000000000000  0.5000000000000000
 -0.0000000000000000 -0.0000000000000000 -0.0000000000000000
 
  0.00000000E+00  0.00000000E+00  0.00000000E+00
  0.00000000E+00  0.00000000E+00  0.00000000E+00
