Si2
1.0
-2.432004 2.432004 1.339471
2.432004 -2.432004 1.339471
2.432004 2.432004 -1.339471
Si
2
direct
0.750000 0.250000 0.500000 Si
0.500000 0.500000 0.000000 Si
