Si2                                     
   1.00000000000000     
    -2.3819590000000002    2.3819590000000002    1.3592409999999999
     2.3819590000000002   -2.3819590000000002    1.3592409999999999
     2.3819590000000002    2.3819590000000002   -1.3592409999999999
   Si
     2
Direct
  0.0000000000000000  0.0000000000000000  0.0000000000000000
  0.2500000000000000  0.7500000000000000  0.5000000000000000
 
  0.00000000E+00  0.00000000E+00  0.00000000E+00
  0.00000000E+00  0.00000000E+00  0.00000000E+00
