Si2
1.0
-2.381959 2.381959 1.359241
2.381959 -2.381959 1.359241
2.381959 2.381959 -1.359241
Si
2
direct
0.000000 0.000000 0.000000 Si
0.250000 0.750000 0.500000 Si
