Si2                                     
   1.00000000000000     
    -2.3885448267627423    2.3885448267627423    1.3507937823447973
     2.3885448267627423   -2.3885448267627423    1.3507937823447973
     2.3885448267627423    2.3885448267627423   -1.3507937823447973
   Si
     2
Direct
  0.2500000000000000  0.7500000000000000  0.5000000000000000
  0.0000000000000000 -0.0000000000000000 -0.0000000000000000
 
  0.00000000E+00  0.00000000E+00  0.00000000E+00
  0.00000000E+00  0.00000000E+00  0.00000000E+00
