Si2
1.0
-2.450000 2.450000 1.274000
2.450000 -2.450000 1.274000
2.450000 2.450000 -1.274000
Si
2
direct
0.250000 0.750000 0.500000 Si
1.000000 0.000000 0.000000 Si
