Si2
1.0
-2.431042 2.431042 1.338941
2.431042 -2.431042 1.338941
2.431042 2.431042 -1.338941
Si
2
direct
0.750000 0.250000 0.500000 Si
0.500000 0.500000 0.000000 Si
