Si2                                     
   1.00000000000000     
    -2.3819587894744361    2.3819587894744365    1.3592408315312552
     2.3819587894744361   -2.3819587894744365    1.3592408315312554
     2.3819587894744365    2.3819587894744370   -1.3592408315312552
   Si
     2
Direct
  0.2500000000000000  0.7500000000000000  0.5000000000000000
 -0.0000000000000000 -0.0000000000000000 -0.0000000000000000
 
  0.00000000E+00  0.00000000E+00  0.00000000E+00
  0.00000000E+00  0.00000000E+00  0.00000000E+00
