Si2
1.0
-2.428636 2.428636 1.337617
2.428636 -2.428636 1.337617
2.428636 2.428636 -1.337617
Si
2
direct
0.750000 0.250000 0.500000 Si
0.500000 0.500000 0.000000 Si
