Si2                                     
   1.00000000000000     
    -2.3864051305984888    2.3864051305984888    1.3490784666597524
     2.3864051305984888   -2.3864051305984884    1.3490784666597524
     2.3864051305984884    2.3864051305984884   -1.3490784666597524
   Si
     2
Direct
  0.2500000000000000  0.7500000000000000  0.5000000000000000
  0.0000000000000000 -0.0000000000000000  0.0000000000000000
 
  0.00000000E+00  0.00000000E+00  0.00000000E+00
  0.00000000E+00  0.00000000E+00  0.00000000E+00
