Si2
1.0
-2.430080 2.430080 1.338411
2.430080 -2.430080 1.338411
2.430080 2.430080 -1.338411
Si
2
direct
0.750000 0.250000 0.500000 Si
0.500000 0.500000 0.000000 Si
