Si2                                     
   1.00000000000000     
    -2.3363908774783444    2.3363908774783444    1.3336280182589355
     2.3363908774783444   -2.3363908774783444    1.3336280182589355
     2.3363908774783444    2.3363908774783444   -1.3336280182589355
   Si
     2
Direct
  0.2500000000000000  0.7500000000000000  0.5000000000000000
 -0.0000000000000000 -0.0000000000000000 -0.0000000000000000
 
  0.00000000E+00  0.00000000E+00  0.00000000E+00
  0.00000000E+00  0.00000000E+00  0.00000000E+00
