Si2                                     
   1.00000000000000     
    -2.3032398960689870    2.3032398960689870    1.4751733493303709
     2.3032398960689870   -2.3032398960689870    1.4751733493303709
     2.3032398960689870    2.3032398960689870   -1.4751733493303709
   Si
     2
Direct
  0.2500000000000000  0.7500000000000000  0.5000000000000000
  0.0000000000000000 -0.0000000000000000  0.0000000000000000
 
  0.00000000E+00  0.00000000E+00  0.00000000E+00
  0.00000000E+00  0.00000000E+00  0.00000000E+00
