Si2                                     
   1.00000000000000     
    -2.4901427871410502    2.4901427871410502    1.2456386964631654
     2.4901427871410502   -2.4901427871410502    1.2456386964631654
     2.4901427871410502    2.4901427871410502   -1.2456386964631654
   Si
     2
Direct
  0.2500000000000000  0.7500000000000000  0.5000000000000000
  0.0000000000000000  0.0000000000000000  0.0000000000000000
 
  0.00000000E+00  0.00000000E+00  0.00000000E+00
  0.00000000E+00  0.00000000E+00  0.00000000E+00
