Si2
1.0
-2.310500 2.310500 1.318464
2.310500 -2.310500 1.318464
2.310500 2.310500 -1.318464
Si
2
direct
0.000000 0.000000 0.000000 Si
0.250000 0.750000 0.500000 Si
