Si2
1.0
-2.428877 2.428877 1.337749
2.428877 -2.428877 1.337749
2.428877 2.428877 -1.337749
Si
2
direct
0.750000 0.250000 0.500000 Si
0.500000 0.500000 0.000000 Si
