Si2
1.0
-2.431763 2.431763 1.339339
2.431763 -2.431763 1.339339
2.431763 2.431763 -1.339339
Si
2
direct
0.750000 0.250000 0.500000 Si
0.500000 0.500000 0.000000 Si
