Si2
1.0
-2.572515 2.572515 1.467980
2.572515 -2.572515 1.467980
2.572515 2.572515 -1.467980
Si
2
direct
0.000000 0.000000 0.000000 Si
0.250000 0.750000 0.500000 Si
