Si2                                     
   1.00000000000000     
    -2.4279150000000000    2.4279150000000000    1.3372189999999999
     2.4279150000000000   -2.4279150000000000    1.3372189999999999
     2.4279150000000000    2.4279150000000000   -1.3372189999999999
   Si
     2
Direct
  0.7500000000000000  0.2500000000000000  0.5000000000000000
  0.5000000000000000  0.5000000000000000  0.0000000000000000
 
  0.00000000E+00  0.00000000E+00  0.00000000E+00
  0.00000000E+00  0.00000000E+00  0.00000000E+00
