Si2                                     
   1.00000000000000     
    -2.4214133570216032    2.4214133570216032    1.3050492408096561
     2.4214133570216032   -2.4214133570216032    1.3050492408096561
     2.4214133570216032    2.4214133570216032   -1.3050492408096561
   Si
     2
Direct
  0.2500000000000000  0.7500000000000000  0.5000000000000000
  0.0000000000000000  0.0000000000000000 -0.0000000000000000
 
  0.00000000E+00  0.00000000E+00  0.00000000E+00
  0.00000000E+00  0.00000000E+00  0.00000000E+00
