Si2                                     
   1.00000000000000     
     0.0000000000000000    2.7342513522448750    2.7342513522448750
     2.7342513522448750    0.0000000000000000    2.7342513522448750
     2.7342513522448750    2.7342513522448750   -0.0000000000000000
   Si
     2
Direct
  0.5000000000000000  0.5000000000000000  0.5000000000000000
  0.7500000000000000  0.7500000000000000  0.7500000000000000
 
  0.00000000E+00  0.00000000E+00  0.00000000E+00
  0.00000000E+00  0.00000000E+00  0.00000000E+00
