Si2
1.0
-2.427433 2.427433 1.336954
2.427433 -2.427433 1.336954
2.427433 2.427433 -1.336954
Si
2
direct
0.750000 0.250000 0.500000 Si
0.500000 0.500000 0.000000 Si
