Si2                                     
   1.00000000000000     
    -2.4155459324522450    2.4155459324522450    1.3148805670924679
     2.4155459324522450   -2.4155459324522450    1.3148805670924679
     2.4155459324522450    2.4155459324522450   -1.3148805670924679
   Si
     2
Direct
  0.2500000000000000  0.7500000000000000  0.5000000000000000
  0.0000000000000000  0.0000000000000000  0.0000000000000000
 
  0.00000000E+00  0.00000000E+00  0.00000000E+00
  0.00000000E+00  0.00000000E+00  0.00000000E+00
