Si2                                     
   1.00000000000000     
    -2.5010569999999999    2.5010569999999999    1.4272030000000000
     2.5010569999999999   -2.5010569999999999    1.4272030000000000
     2.5010569999999999    2.5010569999999999   -1.4272030000000000
   Si
     2
Direct
  0.0000000000000000  0.0000000000000000  0.0000000000000000
  0.2500000000000000  0.7500000000000000  0.5000000000000000
 
  0.00000000E+00  0.00000000E+00  0.00000000E+00
  0.00000000E+00  0.00000000E+00  0.00000000E+00
