Si2
1.0
-2.501057 2.501057 1.427203
2.501057 -2.501057 1.427203
2.501057 2.501057 -1.427203
Si
2
direct
0.000000 0.000000 0.000000 Si
0.250000 0.750000 0.500000 Si
