Si2
1.0
-2.596335 2.596335 1.481573
2.596335 -2.596335 1.481573
2.596335 2.596335 -1.481573
Si
2
direct
0.000000 0.000000 0.000000 Si
0.250000 0.750000 0.500000 Si
