Si2                                     
   1.00000000000000     
    -2.2152219999999998    2.2152219999999998    1.2640940000000001
     2.2152219999999998   -2.2152219999999998    1.2640940000000001
     2.2152219999999998    2.2152219999999998   -1.2640940000000001
   Si
     2
Direct
  0.0000000000000000  0.0000000000000000  0.0000000000000000
  0.2500000000000000  0.7500000000000000  0.5000000000000000
 
  0.00000000E+00  0.00000000E+00  0.00000000E+00
  0.00000000E+00  0.00000000E+00  0.00000000E+00
