Si2
1.0
-2.215222 2.215222 1.264094
2.215222 -2.215222 1.264094
2.215222 2.215222 -1.264094
Si
2
direct
0.000000 0.000000 0.000000 Si
0.250000 0.750000 0.500000 Si
