Si2
1.0
-2.429117 2.429117 1.337881
2.429117 -2.429117 1.337881
2.429117 2.429117 -1.337881
Si
2
direct
0.750000 0.250000 0.500000 Si
0.500000 0.500000 0.000000 Si
