Si2                                     
   1.00000000000000     
    -2.4154490833356630    2.4154490833356630    1.3152424174370771
     2.4154490833356630   -2.4154490833356630    1.3152424174370771
     2.4154490833356630    2.4154490833356630   -1.3152424174370771
   Si
     2
Direct
  0.2500000000000000  0.7500000000000000  0.5000000000000000
 -0.0000000000000000  0.0000000000000000 -0.0000000000000000
 
  0.00000000E+00  0.00000000E+00  0.00000000E+00
  0.00000000E+00  0.00000000E+00  0.00000000E+00
