Si2                                     
   1.00000000000000     
    -2.4228695869836878    2.4228695869836878    1.3065642045155896
     2.4228695869836878   -2.4228695869836878    1.3065642045155896
     2.4228695869836878    2.4228695869836878   -1.3065642045155896
   Si
     2
Direct
  0.2500000000000000  0.7500000000000000  0.5000000000000000
 -0.0000000000000000  0.0000000000000000 -0.0000000000000000
 
  0.00000000E+00  0.00000000E+00  0.00000000E+00
  0.00000000E+00  0.00000000E+00  0.00000000E+00
