Si2                                     
   1.00000000000000     
    -2.4155409409125213    2.4155409409125213    1.3230589523535099
     2.4155409409125213   -2.4155409409125213    1.3230589523535099
     2.4155409409125213    2.4155409409125213   -1.3230589523535099
   Si
     2
Direct
  0.2500000000000000  0.7500000000000000  0.5000000000000000
 -0.0000000000000000  0.0000000000000000 -0.0000000000000000
 
  0.00000000E+00  0.00000000E+00  0.00000000E+00
  0.00000000E+00  0.00000000E+00  0.00000000E+00
