Si2                                     
   1.00000000000000     
    -2.3781529178241558    2.3781529178241558    1.3437230311565638
     2.3781529178241558   -2.3781529178241558    1.3437230311565638
     2.3781529178241558    2.3781529178241558   -1.3437230311565638
   Si
     2
Direct
  0.2500000000000000  0.7500000000000000  0.5000000000000000
  0.0000000000000000  0.0000000000000000  0.0000000000000000
 
  0.00000000E+00  0.00000000E+00  0.00000000E+00
  0.00000000E+00  0.00000000E+00  0.00000000E+00
