Automatic kpoint scheme
0
Monkhorst
3 3 3
