Si2
1.0
-0.000000 2.925700 2.925700
2.925700 0.000000 2.925700
2.925700 2.925700 0.000000
Si
2
direct
0.000000 0.000000 0.000000 Si
0.250000 0.250000 0.250000 Si
