Si2
1.0
-0.000000 2.763895 2.763895
2.763895 0.000000 2.763895
2.763895 2.763895 0.000000
Si
2
direct
0.500000 0.500000 0.500000 Si
0.750000 0.750000 0.750000 Si
