Si2
1.0
-2.405778 2.405778 1.372833
2.405778 -2.405778 1.372833
2.405778 2.405778 -1.372833
Si
2
direct
0.000000 0.000000 0.000000 Si
0.250000 0.750000 0.500000 Si
