Si2                                     
   1.00000000000000     
    -2.3940651873707957    2.3940651873707957    1.3394082937867575
     2.3940651873707957   -2.3940651873707957    1.3394082937867575
     2.3940651873707957    2.3940651873707957   -1.3394082937867575
   Si
     2
Direct
  0.2500000000000000  0.7500000000000000  0.5000000000000000
  0.0000000000000000  0.0000000000000000  0.0000000000000000
 
  0.00000000E+00  0.00000000E+00  0.00000000E+00
  0.00000000E+00  0.00000000E+00  0.00000000E+00
