Si2                                     
   1.00000000000000     
    -2.4220300534229615    2.4220300534229615    1.3053592503517488
     2.4220300534229615   -2.4220300534229615    1.3053592503517488
     2.4220300534229615    2.4220300534229615   -1.3053592503517488
   Si
     2
Direct
  0.2500000000000000  0.7500000000000000  0.5000000000000000
 -0.0000000000000000 -0.0000000000000000 -0.0000000000000000
 
  0.00000000E+00  0.00000000E+00  0.00000000E+00
  0.00000000E+00  0.00000000E+00  0.00000000E+00
