Automatic kpoint scheme
0
Monkhorst
6 6 6
