Si2
1.0
-2.286680 2.286680 1.304871
2.286680 -2.286680 1.304871
2.286680 2.286680 -1.304871
Si
2
direct
0.000000 0.000000 0.000000 Si
0.250000 0.750000 0.500000 Si
