Si2                                     
   1.00000000000000     
    -2.4459995606446263    2.4459995606446263    1.2756254450752547
     2.4459995606446263   -2.4459995606446263    1.2756254450752547
     2.4459995606446263    2.4459995606446263   -1.2756254450752547
   Si
     2
Direct
  0.2500000000000000  0.7500000000000000  0.5000000000000000
  0.0000000000000000  0.0000000000000000  0.0000000000000000
 
  0.00000000E+00  0.00000000E+00  0.00000000E+00
  0.00000000E+00  0.00000000E+00  0.00000000E+00
