Si2
1.0
-2.477237 2.477237 1.413610
2.477237 -2.477237 1.413610
2.477237 2.477237 -1.413610
Si
2
direct
0.000000 0.000000 0.000000 Si
0.250000 0.750000 0.500000 Si
