Si2                                     
   1.00000000000000     
    -2.4898754928262132    2.4898754928262132    1.2465139430118850
     2.4898754928262132   -2.4898754928262132    1.2465139430118850
     2.4898754928262132    2.4898754928262132   -1.2465139430118850
   Si
     2
Direct
  0.2500000000000000  0.7500000000000000  0.5000000000000000
 -0.0000000000000000  0.0000000000000000 -0.0000000000000000
 
  0.00000000E+00  0.00000000E+00  0.00000000E+00
  0.00000000E+00  0.00000000E+00  0.00000000E+00
