Si2                                     
   1.00000000000000     
    -2.3928809390798094    2.3928809390798094    1.3492735818876687
     2.3928809390798094   -2.3928809390798094    1.3492735818876687
     2.3928809390798094    2.3928809390798094   -1.3492735818876687
   Si
     2
Direct
  0.2500000000000000  0.7500000000000000  0.5000000000000000
 -0.0000000000000000  0.0000000000000000 -0.0000000000000000
 
  0.00000000E+00  0.00000000E+00  0.00000000E+00
  0.00000000E+00  0.00000000E+00  0.00000000E+00
