Si2                                     
   1.00000000000000     
    -2.4288005233679502    2.4288005233679497    1.3076145882970653
     2.4288005233679502   -2.4288005233679497    1.3076145882970653
     2.4288005233679497    2.4288005233679497   -1.3076145882970653
   Si
     2
Direct
  0.2500000000000000  0.7500000000000000  0.5000000000000000
 -0.0000000000000000  0.0000000000000000  0.0000000000000000
 
  0.00000000E+00  0.00000000E+00  0.00000000E+00
  0.00000000E+00  0.00000000E+00  0.00000000E+00
