Si2                                     
   1.00000000000000     
    -2.3122404877791967    2.3122404877791967    1.4763374111206975
     2.3122404877791967   -2.3122404877791967    1.4763374111206975
     2.3122404877791967    2.3122404877791967   -1.4763374111206975
   Si
     2
Direct
  0.2500000000000000  0.7500000000000000  0.5000000000000000
  0.0000000000000000  0.0000000000000000  0.0000000000000000
 
  0.00000000E+00  0.00000000E+00  0.00000000E+00
  0.00000000E+00  0.00000000E+00  0.00000000E+00
