Si2
1.0
-2.427674 2.427674 1.337087
2.427674 -2.427674 1.337087
2.427674 2.427674 -1.337087
Si
2
direct
0.750000 0.250000 0.500000 Si
0.500000 0.500000 0.000000 Si
